# Objective value = 20
z0 1
z1 0
z2 0
z3 0
z4 0
z5 0
z6 0
z7 0
z8 1
z9 0
z10 0
z11 0
z12 0
z13 0
z14 0
z15 0
z16 0
z17 0
z18 0
z19 0
z20 0
z21 0
z22 0
z23 0
z24 0
z25 0
z26 0
z27 0
z28 0
z29 0
z30 0
z31 0
z32 0
z33 0
z34 0
z35 0
z36 0
z37 0
z38 0
z39 0
z40 0
z41 0
z42 0
z43 0
z44 0
z45 0
z46 0
z47 0
z48 0
z49 0
z50 0
z51 0
z52 0
z53 0
z54 0
z55 0
z56 0
z57 0
z58 0
z59 0
z60 0
z61 0
z62 0
z63 0
z64 0
z65 0
z66 0
z67 0
z68 0
z69 0
z70 0
z71 0
z72 0
z73 0
z74 0
z75 0
z76 0
z77 0
z78 0
z79 0
z80 0
z81 0
z82 0
z83 0
z84 0
z85 0
z86 0
z87 0
z88 0
z89 0
z90 0
z91 0
z92 0
z93 0
z94 0
z95 0
z96 0
z97 0
z98 0
z99 0
z100 0
z101 0
z102 0
z103 0
z104 0
z105 0
z106 0
z107 0
z108 0
z109 0
z110 0
z111 0
z112 0
z113 0
z114 0
z115 0
z116 0
z117 0
z118 0
z119 0
z120 0
z121 0
z122 0
z123 0
z124 0
z125 0
z126 0
z127 0
z128 0
z129 0
z130 0
z131 0
z132 0
z133 0
z134 0
z135 0
z136 1
z137 0
z138 0
z139 0
z140 0
z141 0
z142 0
z143 0
z144 0
z145 0
z146 0
z147 0
z148 0
z149 0
z150 0
z151 0
z152 0
z153 0
z154 0
z155 0
z156 0
z157 0
z158 0
z159 0
z160 0
z161 0
z162 0
z163 0
z164 0
z165 0
z166 0
z167 0
z168 0
z169 0
z170 0
z171 0
z172 0
z173 0
z174 0
z175 0
z176 0
z177 0
z178 0
z179 0
z180 0
z181 0
z182 0
z183 0
z184 0
z185 0
z186 0
z187 0
z188 0
z189 0
z190 0
z191 0
z192 0
z193 0
z194 0
z195 0
z196 0
z197 0
z198 0
z199 0
z200 0
z201 0
z202 0
z203 0
z204 0
z205 0
z206 0
z207 0
z208 0
z209 0
z210 0
z211 0
z212 0
z213 0
z214 0
z215 0
z216 0
z217 1
z218 0
z219 0
z220 0
z221 0
z222 0
z223 0
z224 0
z225 0
z226 0
z227 0
z228 0
z229 0
z230 0
z231 0
z232 0
z233 0
z234 0
z235 0
z236 0
z237 0
z238 0
z239 0
z240 1
z241 0
z242 0
z243 0
z244 0
z245 0
z246 0
z247 0
z248 0
z249 0
z250 0
z251 0
z252 0
z253 0
z254 0
z255 0
z256 0
z257 0
z258 0
z259 0
z260 0
z261 0
z262 0
z263 0
z264 0
z265 0
z266 0
z267 0
z268 0
z269 0
z270 0
z271 0
z272 0
z273 0
z274 0
z275 0
z276 0
z277 0
z278 0
z279 0
z280 0
z281 0
z282 0
z283 0
z284 0
z285 0
z286 0
z287 0
z288 0
z289 0
z290 0
z291 0
z292 0
z293 0
z294 0
z295 0
z296 0
z297 0
z298 0
z299 0
z300 0
z301 0
z302 0
z303 0
z304 0
z305 1
z306 0
z307 0
z308 0
z309 0
z310 0
z311 0
z312 0
z313 0
z314 0
z315 0
z316 0
z317 0
z318 0
z319 0
z320 0
z321 0
z322 0
z323 0
z324 0
z325 0
z326 0
z327 0
z328 0
z329 0
z330 0
z331 0
z332 0
z333 0
z334 0
z335 0
z336 0
z337 0
z338 0
z339 0
z340 0
z341 0
z342 0
z343 0
z344 0
z345 0
z346 0
z347 0
z348 0
z349 0
z350 0
z351 0
z352 0
z353 0
z354 0
z355 0
z356 0
z357 0
z358 0
z359 0
z360 0
z361 0
z362 0
z363 0
z364 0
z365 0
z366 0
z367 0
z368 0
z369 0
z370 0
z371 0
z372 0
z373 0
z374 0
z375 0
z376 0
z377 0
z378 0
z379 0
z380 0
z381 0
z382 0
z383 0
z384 0
z385 0
z386 0
z387 0
z388 0
z389 0
z390 0
z391 0
z392 0
z393 0
z394 0
z395 0
z396 0
z397 0
z398 0
z399 0
z400 0
z401 0
z402 0
z403 0
z404 0
z405 0
z406 0
z407 0
z408 0
z409 0
z410 0
z411 0
z412 0
z413 0
z414 0
z415 0
z416 0
z417 0
z418 0
z419 0
z420 0
z421 0
z422 0
z423 0
z424 0
z425 0
z426 0
z427 0
z428 0
z429 0
z430 0
z431 0
z432 0
z433 0
z434 0
z435 0
z436 0
z437 0
z438 0
z439 0
z440 0
z441 0
z442 0
z443 0
z444 0
z445 0
z446 0
z447 0
z448 0
z449 0
z450 0
z451 0
z452 0
z453 0
z454 0
z455 0
z456 0
z457 0
z458 0
z459 0
z460 0
z461 0
z462 0
z463 0
z464 0
z465 0
z466 0
z467 0
z468 0
z469 0
z470 0
z471 0
z472 0
z473 0
z474 0
z475 0
z476 0
z477 0
z478 0
z479 0
z480 0
z481 0
z482 0
z483 0
z484 0
z485 0
z486 0
z487 0
z488 0
z489 0
z490 0
z491 1
z492 0
z493 0
z494 0
z495 0
z496 0
z497 0
z498 0
z499 0
z500 0
z501 0
z502 0
z503 0
z504 0
z505 0
z506 0
z507 0
z508 0
z509 0
z510 0
z511 0
z512 0
z513 0
z514 0
z515 0
z516 0
z517 0
z518 0
z519 0
z520 0
z521 0
z522 0
z523 0
z524 0
z525 0
z526 0
z527 0
z528 0
z529 0
z530 0
z531 0
z532 0
z533 0
z534 0
z535 0
z536 0
z537 0
z538 0
z539 0
z540 0
z541 0
z542 0
z543 0
z544 0
z545 0
z546 0
z547 0
z548 0
z549 0
z550 0
z551 0
z552 0
z553 0
z554 0
z555 0
z556 0
z557 0
z558 0
z559 0
z560 0
z561 0
z562 0
z563 0
z564 0
z565 0
z566 0
z567 1
z568 0
z569 0
z570 0
z571 0
z572 0
z573 0
z574 0
z575 0
z576 0
z577 0
z578 0
z579 0
z580 0
z581 0
z582 0
z583 0
z584 0
z585 0
z586 0
z587 0
z588 0
z589 0
z590 0
z591 0
z592 0
z593 0
z594 0
z595 0
z596 0
z597 0
z598 0
z599 0
z600 0
z601 0
z602 0
z603 0
z604 0
z605 0
z606 0
z607 0
z608 0
z609 0
z610 0
z611 0
z612 0
z613 0
z614 0
z615 0
z616 0
z617 0
z618 0
z619 0
z620 0
z621 0
z622 0
z623 0
z624 0
z625 0
z626 0
z627 0
z628 0
z629 0
z630 0
z631 0
z632 0
z633 0
z634 0
z635 0
z636 0
z637 0
z638 0
z639 0
z640 0
z641 0
z642 0
z643 0
z644 0
z645 0
z646 0
z647 1
z648 0
z649 0
z650 0
z651 0
z652 0
z653 0
z654 0
z655 0
z656 0
z657 0
z658 0
z659 0
z660 0
z661 0
z662 0
z663 0
z664 0
z665 0
z666 0
z667 0
z668 0
z669 0
z670 0
z671 0
z672 0
z673 0
z674 0
z675 0
z676 0
z677 0
z678 0
z679 0
z680 0
z681 0
z682 0
z683 1
z684 0
z685 0
z686 0
z687 0
z688 0
z689 0
z690 0
z691 0
z692 1
z693 0
z694 0
z695 0
z696 0
z697 0
z698 0
z699 0
z700 0
z701 0
z702 0
z703 0
z704 0
z705 0
z706 0
z707 0
z708 0
z709 0
z710 0
z711 0
z712 0
z713 0
z714 0
z715 0
z716 0
z717 0
z718 0
z719 0
z720 0
z721 0
z722 0
z723 0
z724 0
z725 0
z726 0
z727 0
z728 0
z729 0
z730 0
z731 0
z732 0
z733 0
z734 0
z735 0
z736 0
z737 0
z738 0
z739 0
z740 0
z741 0
z742 0
z743 0
z744 0
z745 0
z746 0
z747 0
z748 0
z749 0
z750 0
z751 0
z752 0
z753 0
z754 0
z755 0
z756 0
z757 0
z758 0
z759 0
z760 0
z761 0
z762 0
z763 0
z764 0
z765 0
z766 0
z767 0
z768 0
z769 0
z770 0
z771 0
z772 0
z773 0
z774 0
z775 0
z776 0
z777 0
z778 0
z779 0
z780 0
z781 0
z782 0
z783 0
z784 0
z785 0
z786 0
z787 0
z788 0
z789 0
z790 0
z791 0
z792 0
z793 0
z794 0
z795 0
z796 0
z797 1
z798 0
z799 0
z800 0
z801 0
z802 0
z803 0
z804 0
z805 0
z806 0
z807 0
z808 0
z809 0
z810 0
z811 0
z812 0
z813 0
z814 0
z815 0
z816 0
z817 0
z818 0
z819 0
z820 0
z821 0
z822 0
z823 0
z824 0
z825 0
z826 0
z827 0
z828 0
z829 0
z830 0
z831 0
z832 0
z833 0
z834 0
z835 0
z836 0
z837 0
z838 0
z839 0
z840 0
z841 0
z842 0
z843 0
z844 0
z845 0
z846 0
z847 0
z848 0
z849 0
z850 0
z851 0
z852 0
z853 0
z854 0
z855 0
z856 0
z857 0
z858 0
z859 0
z860 0
z861 0
z862 0
z863 0
z864 0
z865 0
z866 0
z867 0
z868 0
z869 0
z870 0
z871 0
z872 0
z873 0
z874 0
z875 0
z876 0
z877 0
z878 0
z879 0
z880 0
z881 0
z882 0
z883 0
z884 0
z885 0
z886 0
z887 0
z888 0
z889 0
z890 0
z891 1
z892 0
z893 0
z894 0
z895 0
z896 0
z897 0
z898 0
z899 0
z900 0
z901 0
z902 0
z903 0
z904 0
z905 0
z906 0
z907 0
z908 0
z909 0
z910 0
z911 0
z912 0
z913 0
z914 0
z915 0
z916 0
z917 0
z918 0
z919 0
z920 0
z921 0
z922 0
z923 0
z924 0
z925 0
z926 0
z927 0
z928 0
z929 1
z930 0
z931 0
z932 0
z933 0
z934 0
z935 0
z936 0
z937 0
z938 0
z939 0
z940 0
z941 0
z942 0
z943 0
z944 0
z945 0
z946 0
z947 0
z948 0
z949 0
z950 0
z951 0
z952 0
z953 0
z954 0
z955 0
z956 0
z957 0
z958 0
z959 0
z960 0
z961 0
z962 0
z963 0
z964 0
z965 0
z966 0
z967 0
z968 0
z969 0
z970 0
z971 0
z972 0
z973 0
z974 0
z975 0
z976 0
z977 0
z978 0
z979 0
z980 0
z981 0
z982 0
z983 0
z984 0
z985 0
z986 0
z987 0
z988 0
z989 0
z990 0
z991 0
z992 0
z993 0
z994 0
z995 0
z996 0
z997 0
z998 0
z999 0
z1000 0
z1001 0
z1002 0
z1003 0
z1004 0
z1005 0
z1006 0
z1007 0
z1008 0
z1009 0
z1010 0
z1011 0
z1012 0
z1013 0
z1014 0
z1015 0
z1016 0
z1017 0
z1018 0
z1019 0
z1020 0
z1021 0
z1022 0
z1023 0
z1024 0
z1025 0
z1026 0
z1027 0
z1028 0
z1029 0
z1030 0
z1031 0
z1032 0
z1033 0
z1034 0
z1035 0
z1036 0
z1037 0
z1038 0
z1039 0
z1040 0
z1041 0
z1042 0
z1043 0
z1044 0
z1045 0
z1046 0
z1047 0
z1048 0
z1049 0
z1050 0
z1051 0
z1052 0
z1053 0
z1054 0
z1055 0
z1056 0
z1057 0
z1058 0
z1059 0
z1060 0
z1061 0
z1062 0
z1063 0
z1064 0
z1065 0
z1066 0
z1067 0
z1068 0
z1069 0
z1070 0
z1071 0
z1072 0
z1073 0
z1074 0
z1075 0
z1076 0
z1077 0
z1078 0
z1079 0
z1080 0
z1081 0
z1082 0
z1083 0
z1084 0
z1085 0
z1086 0
z1087 0
z1088 0
z1089 0
z1090 0
z1091 0
z1092 0
z1093 0
z1094 0
z1095 0
z1096 0
z1097 0
z1098 0
z1099 0
z1100 0
z1101 0
z1102 0
z1103 0
z1104 0
z1105 0
z1106 0
z1107 0
z1108 0
z1109 0
z1110 0
z1111 0
z1112 0
z1113 0
z1114 0
z1115 1
z1116 0
z1117 0
z1118 0
z1119 0
z1120 0
z1121 0
z1122 0
z1123 0
z1124 0
z1125 0
z1126 0
z1127 0
z1128 0
z1129 0
z1130 0
z1131 1
z1132 0
z1133 0
z1134 0
z1135 0
z1136 0
z1137 0
z1138 0
z1139 0
z1140 0
z1141 0
z1142 0
z1143 0
z1144 0
z1145 0
z1146 0
z1147 0
z1148 0
z1149 0
z1150 0
z1151 0
z1152 0
z1153 0
z1154 0
z1155 0
z1156 0
z1157 0
z1158 0
z1159 0
z1160 0
z1161 0
z1162 0
z1163 0
z1164 0
z1165 0
z1166 0
z1167 0
z1168 0
z1169 0
z1170 0
z1171 0
z1172 0
z1173 0
z1174 0
z1175 0
z1176 0
z1177 0
z1178 0
z1179 0
z1180 0
z1181 0
z1182 0
z1183 0
z1184 0
z1185 0
z1186 0
z1187 0
z1188 0
z1189 0
z1190 0
z1191 0
z1192 0
z1193 0
z1194 0
z1195 0
z1196 0
z1197 0
z1198 0
z1199 0
z1200 0
z1201 0
z1202 0
z1203 0
z1204 0
z1205 0
z1206 0
z1207 0
z1208 0
z1209 0
z1210 1
z1211 0
z1212 0
z1213 0
z1214 0
z1215 1
z1216 0
z1217 0
z1218 0
z1219 0
z1220 1
z1221 0
z1222 0
z1223 0
z1224 0
z1225 1
z1226 0
z1227 0
z1228 0
z1229 0
z1230 0
z1231 0
z1232 0
z1233 0
z1234 0
z1235 0
z1236 0
z1237 0
z1238 0
z1239 0
z1240 0
z1241 0
z1242 0
z1243 0
z1244 0
z1245 0
z1246 0
z1247 0
z1248 0
z1249 0
z1250 0
z1251 0
z1252 0
z1253 0
z1254 0
z1255 0
z1256 0
z1257 0
z1258 0
z1259 0
z1260 0
z1261 0
z1262 0
z1263 0
z1264 0
z1265 0
z1266 0
z1267 0
z1268 0
z1269 0
z1270 0
z1271 0
z1272 0
z1273 0
z1274 0
z1275 0
z1276 0
z1277 0
z1278 0
z1279 0
z1280 0
z1281 0
z1282 0
z1283 0
z1284 0
z1285 0
z1286 0
z1287 0
z1288 0
z1289 0
z1290 0
z1291 0
z1292 0
z1293 0
z1294 0
z1295 0
z1296 0
z1297 0
z1298 0
z1299 0
z1300 0
z1301 0
z1302 0
z1303 0
